387729 3111363
387692 3111265
387644 3111166
387573 3111029
387508 3110927
387408 3110772
387342 3110694
387211 3110801
387048 3110973
387094 3111054
387135 3111132
387194 3111224
387325 3111348
387393 3111445
387437 3111501
387549 3111440
387729 3111363
387549 3111440
387515 3111363
387464 3111265
387384 3111127
387323 3111023
387255 3110903
387211 3110801
387255 3110903
387094 3111054
387255 3110903
387408 3110772
387508 3110927
387323 3111023
387135 3111132
387194 3111224
387384 3111127
387573 3111029
387644 3111166
387464 3111265
387325 3111348
387393 3111445
387515 3111363
387692 3111265
387644 3111166
387573 3111029
387508 3110927
387408 3110772
387342 3110694
387408 3110655
387559 3110849
388033 3110696
387948 3110480
387408 3110655
387559 3110849
388033 3110696
388141 3110677
388130 3110611
388014 3110650